Project2/wavelet.asapalap_equations.lp
min: a1 + a2;
c1: X11 = 1;
c2: X21 = 1;
c3: X31 + X32= 1;
c4: X41 + X42 + X43= 1;
c5: X51 + X52 + X53 + X54= 1;
c6: X61 + X62 + X63 + X64 + X65= 1;
c7: X71 + X72 + X73 + X74 + X75 + X76= 1;
c8: X81 + X82 + X83 + X84 + X85 + X86 + X87= 1;
c9: X91 + X92 + X93 + X94 + X95 + X96 + X97 + X98= 1;
c10: X101 + X102 + X103 + X104 + X105 + X106 + X107 + X108 + X109= 1;
c11: X111 + X112 + X113 + X114 + X115 + X116 + X117 + X118 + X119 + X1110= 1;
c12: X121 + X122 + X123 + X124 + X125 + X126 + X127 + X128 + X129 + X1210 + X1211= 1;
c13: X131 + X132 + X133 + X134 + X135 + X136 + X137 + X138 + X139 + X1310 + X1311 + X1312= 1;
c14: X141 + X142 + X143 + X144 + X145 + X146 + X147 + X148 + X149 + X1410 + X1411 + X1412 + X1413= 1;
c15: X151 = 1;
c16: X161 = 1;
c17: X171 + X172= 1;
c18: X181 + X182 + X183= 1;
c19: X191 + X192 + X193 + X194= 1;
c20: X201 + X202 + X203 + X204 + X205= 1;
c21: X211 + X212 + X213 + X214 + X215 + X216= 1;
c22: X221 + X222 + X223 + X224 + X225 + X226 + X227= 1;
c23: X231 + X232 + X233 + X234 + X235 + X236 + X237 + X238= 1;
c24: X241 + X242 + X243 + X244 + X245 + X246 + X247 + X248 + X249= 1;
c25: X251 + X252 + X253 + X254 + X255 + X256 + X257 + X258 + X259 + X2510= 1;
c26: X261 + X262 + X263 + X264 + X265 + X266 + X267 + X268 + X269 + X2610 + X2611= 1;
c27: X271 + X272 + X273 + X274 + X275 + X276 + X277 + X278 + X279 + X2710 + X2711 + X2712= 1;
c28: X281 + X282 + X283 + X284 + X285 + X286 + X287 + X288 + X289 + X2810 + X2811 + X2812 + X2813= 1;
c29: X292 = 1;
c30: X303 = 1;
c31: X314 = 1;
c32: X325 = 1;
c33: X336 = 1;
c34: X347 = 1;
c35: X358 = 1;
c36: X369 = 1;
c37: X3710 = 1;
c38: X3811 = 1;
c39: X3912 = 1;
c40: X4013 = 1;
c41: X4114 = 1;
c42: X423 = 1;
c43: X435 = 1;
c44: X447 = 1;
c45: X459 = 1;
c46: X4611 = 1;
c47: X4713 = 1;
c48: X482 = 1;
c49: X494 = 1;
c50: X506 = 1;
c51: X518 = 1;
c52: X5210 = 1;
c53: X5312 = 1;
c54: X5414 = 1;
c55: X552 = 1;
c56: X563 = 1;
c57: X574 = 1;
c58: X585 = 1;
c59: X596 = 1;
c60: X607 = 1;
c61: X618 = 1;
c62: X629 = 1;
c63: X6310 = 1;
c64: X6411 = 1;
c65: X6512 = 1;
c66: X6613 = 1;
c67: X6714 = 1;
c68: X115 = 1;

c69: X11 + X21 + X31 + X41 + X51 + X61 + X71 + X81 + X91 + X101 + X111 + X121 + X131 + X141 + X151 + X161 + X171 + X181 + X191 + X201 + X211 + X221 + X231 + X241 + X251 + X261 + X271 + X281 - a1 <= 0;
c70: X32 + X42 + X52 + X62 + X72 + X82 + X92 + X102 + X112 + X122 + X132 + X142 + X172 + X182 + X192 + X202 + X212 + X222 + X232 + X242 + X252 + X262 + X272 + X282 - a1 <= 0;
c71: X43 + X53 + X63 + X73 + X83 + X93 + X103 + X113 + X123 + X133 + X143 + X183 + X193 + X203 + X213 + X223 + X233 + X243 + X253 + X263 + X273 + X283 - a1 <= 0;
c72: X54 + X64 + X74 + X84 + X94 + X104 + X114 + X124 + X134 + X144 + X194 + X204 + X214 + X224 + X234 + X244 + X254 + X264 + X274 + X284 - a1 <= 0;
c73: X65 + X75 + X85 + X95 + X105 + X115 + X125 + X135 + X145 + X205 + X215 + X225 + X235 + X245 + X255 + X265 + X275 + X285 - a1 <= 0;
c74: X76 + X86 + X96 + X106 + X116 + X126 + X136 + X146 + X216 + X226 + X236 + X246 + X256 + X266 + X276 + X286 - a1 <= 0;
c75: X87 + X97 + X107 + X117 + X127 + X137 + X147 + X227 + X237 + X247 + X257 + X267 + X277 + X287 - a1 <= 0;
c76: X98 + X108 + X118 + X128 + X138 + X148 + X238 + X248 + X258 + X268 + X278 + X288 - a1 <= 0;
c77: X109 + X119 + X129 + X139 + X149 + X249 + X259 + X269 + X279 + X289 - a1 <= 0;
c78: X1110 + X1210 + X1310 + X1410 + X2510 + X2610 + X2710 + X2810 - a1 <= 0;
c79: X1211 + X1311 + X1411 + X2611 + X2711 + X2811 - a1 <= 0;
c80: X1312 + X1412 + X2712 + X2812 - a1 <= 0;
c81: X1413 + X2813 - a1 <= 0;

c82: X292 + X482 + X552 - a2 <= 0;
c83: X303 + X423 + X563 - a2 <= 0;
c84: X314 + X494 + X574 - a2 <= 0;
c85: X325 + X435 + X585 - a2 <= 0;
c86: X336 + X506 + X596 - a2 <= 0;
c87: X347 + X447 + X607 - a2 <= 0;
c88: X358 + X518 + X618 - a2 <= 0;
c89: X369 + X459 + X629 - a2 <= 0;
c90: X3710 + X5210 + X6310 - a2 <= 0;
c91: X3811 + X4611 + X6411 - a2 <= 0;
c92: X3912 + X5312 + X6512 - a2 <= 0;
c93: X4013 + X4713 + X6613 - a2 <= 0;
c94: X4114 + X5414 + X6714 - a2 <= 0;

int a1, a2, X31, X32, X41, X42, X43, X51, X52, X53, X54, X61, X62, X63, X64, X65, X71, X72, X73, X74, X75, X76, X81, X82, X83, X84, X85, X86, X87, X91, X92, X93, X94, X95, X96, X97, X98, X101, X102, X103, X104, X105, X106, X107, X108, X109, X111, X112, X113, X114, X115, X116, X117, X118, X119, X1110, X121, X122, X123, X124, X125, X126, X127, X128, X129, X1210, X1211, X131, X132, X133, X134, X135, X136, X137, X138, X139, X1310, X1311, X1312, X141, X142, X143, X144, X145, X146, X147, X148, X149, X1410, X1411, X1412, X1413, X171, X172, X181, X182, X183, X191, X192, X193, X194, X201, X202, X203, X204, X205, X211, X212, X213, X214, X215, X216, X221, X222, X223, X224, X225, X226, X227, X231, X232, X233, X234, X235, X236, X237, X238, X241, X242, X243, X244, X245, X246, X247, X248, X249, X251, X252, X253, X254, X255, X256, X257, X258, X259, X2510, X261, X262, X263, X264, X265, X266, X267, X268, X269, X2610, X2611, X271, X272, X273, X274, X275, X276, X277, X278, X279, X2710, X2711, X2712, X281, X282, X283, X284, X285, X286, X287, X288, X289, X2810, X2811, X2812, X2813;
