Project2/wavelet.asapalap_equations.lp.output

Value of objective function: 7

Actual values of the variables:
a1                              4
a2                              3
X11                             1
X21                             1
X31                             0
X32                             1
X41                             0
X42                             0
X43                             1
X51                             0
X52                             0
X53                             0
X54                             1
X61                             0
X62                             0
X63                             0
X64                             0
X65                             1
X71                             0
X72                             0
X73                             0
X74                             0
X75                             0
X76                             1
X81                             0
X82                             0
X83                             0
X84                             0
X85                             0
X86                             0
X87                             1
X91                             0
X92                             0
X93                             0
X94                             0
X95                             0
X96                             0
X97                             0
X98                             1
X101                            0
X102                            0
X103                            0
X104                            0
X105                            0
X106                            0
X107                            0
X108                            0
X109                            1
X111                            0
X112                            0
X113                            0
X114                            0
X115                            1
X116                            0
X117                            0
X118                            0
X119                            0
X1110                           0
X121                            0
X122                            0
X123                            0
X124                            0
X125                            0
X126                            0
X127                            0
X128                            0
X129                            0
X1210                           0
X1211                           1
X131                            0
X132                            0
X133                            0
X134                            0
X135                            0
X136                            0
X137                            0
X138                            0
X139                            0
X1310                           0
X1311                           0
X1312                           1
X141                            0
X142                            0
X143                            0
X144                            0
X145                            0
X146                            0
X147                            0
X148                            0
X149                            0
X1410                           0
X1411                           0
X1412                           0
X1413                           1
X151                            1
X161                            1
X171                            0
X172                            1
X181                            0
X182                            0
X183                            1
X191                            0
X192                            0
X193                            0
X194                            1
X201                            0
X202                            0
X203                            0
X204                            0
X205                            1
X211                            0
X212                            0
X213                            0
X214                            0
X215                            0
X216                            1
X221                            0
X222                            0
X223                            0
X224                            0
X225                            1
X226                            0
X227                            0
X231                            0
X232                            0
X233                            0
X234                            1
X235                            0
X236                            0
X237                            0
X238                            0
X241                            0
X242                            0
X243                            0
X244                            1
X245                            0
X246                            0
X247                            0
X248                            0
X249                            0
X251                            0
X252                            0
X253                            1
X254                            0
X255                            0
X256                            0
X257                            0
X258                            0
X259                            0
X2510                           0
X261                            0
X262                            0
X263                            1
X264                            0
X265                            0
X266                            0
X267                            0
X268                            0
X269                            0
X2610                           0
X2611                           0
X271                            0
X272                            1
X273                            0
X274                            0
X275                            0
X276                            0
X277                            0
X278                            0
X279                            0
X2710                           0
X2711                           0
X2712                           0
X281                            0
X282                            1
X283                            0
X284                            0
X285                            0
X286                            0
X287                            0
X288                            0
X289                            0
X2810                           0
X2811                           0
X2812                           0
X2813                           0
X292                            1
X303                            1
X314                            1
X325                            1
X336                            1
X347                            1
X358                            1
X369                            1
X3710                           1
X3811                           1
X3912                           1
X4013                           1
X4114                           1
X423                            1
X435                            1
X447                            1
X459                            1
X4611                           1
X4713                           1
X482                            1
X494                            1
X506                            1
X518                            1
X5210                           1
X5312                           1
X5414                           1
X552                            1
X563                            1
X574                            1
X585                            1
X596                            1
X607                            1
X618                            1
X629                            1
X6310                           1
X6411                           1
X6512                           1
X6613                           1
X6714                           1
